(set-option :produce-unsat-cores true)
(declare-fun obstacle (Int Int) Bool)

(declare-const destx1 Int)
(declare-const desty1 Int)
(declare-const destx2 Int)
(declare-const desty2 Int)
(declare-const destx3 Int)
(declare-const desty3 Int)
(declare-const destx4 Int)
(declare-const desty4 Int)
(declare-const destx5 Int)
(declare-const desty5 Int)
(declare-const destx6 Int)
(declare-const desty6 Int)
(declare-const destx7 Int)
(declare-const desty7 Int)
(declare-const destx8 Int)
(declare-const desty8 Int)
(declare-const destx9 Int)
(declare-const desty9 Int)















(assert (= (obstacle 0 0) false))
(assert (= (obstacle 0 1) false))
(assert (= (obstacle 0 2) false))
(assert (= (obstacle 0 3) false))
(assert (= (obstacle 0 4) false))
(assert (= (obstacle 0 5) false))
(assert (= (obstacle 0 6) false))
(assert (= (obstacle 0 7) false))
(assert (= (obstacle 0 8) false))
(assert (= (obstacle 0 9) false))
(assert (= (obstacle 0 10) false))
(assert (= (obstacle 0 11) false))
(assert (= (obstacle 1 0) false))
(assert (= (obstacle 1 1) false))
(assert (= (obstacle 1 2) false))
(assert (= (obstacle 1 3) false))
(assert (= (obstacle 1 4) false))
(assert (= (obstacle 1 5) false))
(assert (= (obstacle 1 6) false))
(assert (= (obstacle 1 7) false))
(assert (! (= (obstacle 1 8) true) :named obs-1-8))
(assert (= (obstacle 1 9) false))
(assert (= (obstacle 1 10) false))
(assert (= (obstacle 1 11) false))
(assert (= (obstacle 2 0) false))
(assert (= (obstacle 2 1) false))
(assert (= (obstacle 2 2) false))
(assert (! (= (obstacle 2 3) true) :named obs-2-3))
(assert (= (obstacle 2 4) false))
(assert (= (obstacle 2 5) false))
(assert (= (obstacle 2 6) false))
(assert (= (obstacle 2 7) false))
(assert (! (= (obstacle 2 8) true) :named obs-2-8))
(assert (= (obstacle 2 9) false))
(assert (= (obstacle 2 10) false))
(assert (= (obstacle 2 11) false))
(assert (= (obstacle 3 0) false))
(assert (= (obstacle 3 1) false))
(assert (= (obstacle 3 2) false))
(assert (! (= (obstacle 3 3) true) :named obs-3-3))
(assert (= (obstacle 3 4) false))
(assert (! (= (obstacle 3 5) true) :named obs-3-5))
(assert (! (= (obstacle 3 6) true) :named obs-3-6))
(assert (! (= (obstacle 3 7) true) :named obs-3-7))
(assert (! (= (obstacle 3 8) true) :named obs-3-8))
(assert (= (obstacle 3 9) false))
(assert (= (obstacle 3 10) false))
(assert (= (obstacle 3 11) false))
(assert (= (obstacle 4 0) false))
(assert (= (obstacle 4 1) false))
(assert (= (obstacle 4 2) false))
(assert (! (= (obstacle 4 3) true) :named obs-4-3))
(assert (= (obstacle 4 4) false))
(assert (= (obstacle 4 5) false))
(assert (= (obstacle 4 6) false))
(assert (= (obstacle 4 7) false))
(assert (= (obstacle 4 8) false))
(assert (= (obstacle 4 9) false))
(assert (= (obstacle 4 10) false))
(assert (= (obstacle 4 11) false))
(assert (= (obstacle 5 0) false))
(assert (= (obstacle 5 1) false))
(assert (= (obstacle 5 2) false))
(assert (! (= (obstacle 5 3) true) :named obs-5-3))
(assert (! (= (obstacle 5 4) true) :named obs-5-4))
(assert (! (= (obstacle 5 5) true) :named obs-5-5))
(assert (! (= (obstacle 5 6) true) :named obs-5-6))
(assert (! (= (obstacle 5 7) true) :named obs-5-7))
(assert (! (= (obstacle 5 8) true) :named obs-5-8))
(assert (= (obstacle 5 9) false))
(assert (= (obstacle 5 10) false))
(assert (= (obstacle 5 11) false))
(assert (= (obstacle 6 0) false))
(assert (= (obstacle 6 1) false))
(assert (= (obstacle 6 2) false))
(assert (= (obstacle 6 3) false))
(assert (= (obstacle 6 4) false))
(assert (= (obstacle 6 5) false))
(assert (= (obstacle 6 6) false))
(assert (= (obstacle 6 7) false))
(assert (! (= (obstacle 6 8) true) :named obs-6-8))
(assert (= (obstacle 6 9) false))
(assert (= (obstacle 6 10) false))
(assert (= (obstacle 6 11) false))
(assert (= (obstacle 7 0) false))
(assert (= (obstacle 7 1) false))
(assert (= (obstacle 7 2) false))
(assert (! (= (obstacle 7 3) true) :named obs-7-3))
(assert (! (= (obstacle 7 4) true) :named obs-7-4))
(assert (! (= (obstacle 7 5) true) :named obs-7-5))
(assert (= (obstacle 7 6) false))
(assert (= (obstacle 7 7) false))
(assert (! (= (obstacle 7 8) true) :named obs-7-8))
(assert (= (obstacle 7 9) false))
(assert (= (obstacle 7 10) false))
(assert (= (obstacle 7 11) false))
(assert (= (obstacle 8 0) false))
(assert (= (obstacle 8 1) false))
(assert (= (obstacle 8 2) false))
(assert (! (= (obstacle 8 3) true) :named obs-8-3))
(assert (= (obstacle 8 4) false))
(assert (! (= (obstacle 8 5) true) :named obs-8-5))
(assert (! (= (obstacle 8 6) true) :named obs-8-6))
(assert (! (= (obstacle 8 7) true) :named obs-8-7))
(assert (! (= (obstacle 8 8) true) :named obs-8-8))
(assert (= (obstacle 8 9) false))
(assert (= (obstacle 8 10) false))
(assert (= (obstacle 8 11) false))
(assert (= (obstacle 9 0) false))
(assert (= (obstacle 9 1) false))
(assert (= (obstacle 9 2) false))
(assert (! (= (obstacle 9 3) true) :named obs-9-3))
(assert (= (obstacle 9 4) false))
(assert (= (obstacle 9 5) false))
(assert (= (obstacle 9 6) false))
(assert (= (obstacle 9 7) false))
(assert (= (obstacle 9 8) false))
(assert (= (obstacle 9 9) false))
(assert (= (obstacle 9 10) false))
(assert (= (obstacle 9 11) false))
(assert (= (obstacle 10 0) false))
(assert (= (obstacle 10 1) false))
(assert (= (obstacle 10 2) false))
(assert (! (= (obstacle 10 3) true) :named obs-10-3))
(assert (= (obstacle 10 4) false))
(assert (= (obstacle 10 5) false))
(assert (= (obstacle 10 6) false))
(assert (= (obstacle 10 7) false))
(assert (= (obstacle 10 8) false))
(assert (= (obstacle 10 9) false))
(assert (= (obstacle 10 10) false))
(assert (= (obstacle 10 11) false))
(assert (= (obstacle 11 0) false))
(assert (= (obstacle 11 1) false))
(assert (= (obstacle 11 2) false))
(assert (= (obstacle 11 3) false))
(assert (= (obstacle 11 4) false))
(assert (= (obstacle 11 5) false))
(assert (= (obstacle 11 6) false))
(assert (= (obstacle 11 7) false))
(assert (= (obstacle 11 8) false))
(assert (= (obstacle 11 9) false))
(assert (= (obstacle 11 10) false))
(assert (= (obstacle 11 11) false))




(assert (or 
  (and  (= destx1 0)
        (= desty1 8)
  )
  (and  (= destx1 0)
        (= desty1 8)
  )
  (and  (= destx1 1)
        (= desty1 3)
  )
  (and  (= destx1 1)
        (= desty1 3)
  )
  (and  (= destx1 1)
        (= desty1 3)
  )
  (and  (= destx1 1)
        (= desty1 7)
  )
  (and  (= destx1 1)
        (= desty1 7)
  )
  (and  (= destx1 1)
        (= desty1 7)
  )
  (and  (= destx1 1)
        (= desty1 9)
  )
  (and  (= destx1 1)
        (= desty1 9)
  )
  (and  (= destx1 1)
        (= desty1 9)
  )
  (and  (= destx1 2)
        (= desty1 2)
  )
  (and  (= destx1 2)
        (= desty1 2)
  )
  (and  (= destx1 2)
        (= desty1 2)
  )
  (and  (= destx1 2)
        (= desty1 4)
  )
  (and  (= destx1 2)
        (= desty1 4)
  )
  (and  (= destx1 2)
        (= desty1 4)
  )
  (and  (= destx1 2)
        (= desty1 5)
  )
  (and  (= destx1 2)
        (= desty1 5)
  )
  (and  (= destx1 2)
        (= desty1 5)
  )
  (and  (= destx1 2)
        (= desty1 6)
  )
  (and  (= destx1 2)
        (= desty1 6)
  )
  (and  (= destx1 2)
        (= desty1 6)
  )
  (and  (= destx1 2)
        (= desty1 7)
  )
  (and  (= destx1 2)
        (= desty1 7)
  )
  (and  (= destx1 2)
        (= desty1 9)
  )
  (and  (= destx1 2)
        (= desty1 9)
  )
  (and  (= destx1 2)
        (= desty1 9)
  )
  (and  (= destx1 3)
        (= desty1 2)
  )
  (and  (= destx1 3)
        (= desty1 2)
  )
  (and  (= destx1 3)
        (= desty1 2)
  )
  (and  (= destx1 3)
        (= desty1 4)
  )
  (and  (= destx1 3)
        (= desty1 4)
  )
  (and  (= destx1 3)
        (= desty1 9)
  )
  (and  (= destx1 3)
        (= desty1 9)
  )
  (and  (= destx1 3)
        (= desty1 9)
  )
  (and  (= destx1 4)
        (= desty1 2)
  )
  (and  (= destx1 4)
        (= desty1 2)
  )
  (and  (= destx1 4)
        (= desty1 2)
  )
  (and  (= destx1 4)
        (= desty1 4)
  )
  (and  (= destx1 4)
        (= desty1 4)
  )
  (and  (= destx1 4)
        (= desty1 5)
  )
  (and  (= destx1 4)
        (= desty1 5)
  )
  (and  (= destx1 4)
        (= desty1 6)
  )
  (and  (= destx1 4)
        (= desty1 6)
  )
  (and  (= destx1 4)
        (= desty1 7)
  )
  (and  (= destx1 4)
        (= desty1 7)
  )
  (and  (= destx1 4)
        (= desty1 8)
  )
  (and  (= destx1 4)
        (= desty1 8)
  )
  (and  (= destx1 5)
        (= desty1 2)
  )
  (and  (= destx1 5)
        (= desty1 2)
  )
  (and  (= destx1 5)
        (= desty1 2)
  )
  (and  (= destx1 5)
        (= desty1 9)
  )
  (and  (= destx1 5)
        (= desty1 9)
  )
  (and  (= destx1 5)
        (= desty1 9)
  )
  (and  (= destx1 6)
        (= desty1 3)
  )
  (and  (= destx1 6)
        (= desty1 3)
  )
  (and  (= destx1 6)
        (= desty1 4)
  )
  (and  (= destx1 6)
        (= desty1 4)
  )
  (and  (= destx1 6)
        (= desty1 5)
  )
  (and  (= destx1 6)
        (= desty1 5)
  )
  (and  (= destx1 6)
        (= desty1 6)
  )
  (and  (= destx1 6)
        (= desty1 6)
  )
  (and  (= destx1 6)
        (= desty1 6)
  )
  (and  (= destx1 6)
        (= desty1 7)
  )
  (and  (= destx1 6)
        (= desty1 7)
  )
  (and  (= destx1 6)
        (= desty1 9)
  )
  (and  (= destx1 6)
        (= desty1 9)
  )
  (and  (= destx1 6)
        (= desty1 9)
  )
  (and  (= destx1 7)
        (= desty1 2)
  )
  (and  (= destx1 7)
        (= desty1 2)
  )
  (and  (= destx1 7)
        (= desty1 2)
  )
  (and  (= destx1 7)
        (= desty1 6)
  )
  (and  (= destx1 7)
        (= desty1 6)
  )
  (and  (= destx1 7)
        (= desty1 7)
  )
  (and  (= destx1 7)
        (= desty1 7)
  )
  (and  (= destx1 7)
        (= desty1 9)
  )
  (and  (= destx1 7)
        (= desty1 9)
  )
  (and  (= destx1 7)
        (= desty1 9)
  )
  (and  (= destx1 8)
        (= desty1 2)
  )
  (and  (= destx1 8)
        (= desty1 2)
  )
  (and  (= destx1 8)
        (= desty1 2)
  )
  (and  (= destx1 8)
        (= desty1 4)
  )
  (and  (= destx1 8)
        (= desty1 9)
  )
  (and  (= destx1 8)
        (= desty1 9)
  )
  (and  (= destx1 8)
        (= desty1 9)
  )
  (and  (= destx1 9)
        (= desty1 2)
  )
  (and  (= destx1 9)
        (= desty1 2)
  )
  (and  (= destx1 9)
        (= desty1 2)
  )
  (and  (= destx1 9)
        (= desty1 4)
  )
  (and  (= destx1 9)
        (= desty1 4)
  )
  (and  (= destx1 9)
        (= desty1 4)
  )
  (and  (= destx1 9)
        (= desty1 5)
  )
  (and  (= destx1 9)
        (= desty1 5)
  )
  (and  (= destx1 9)
        (= desty1 5)
  )
  (and  (= destx1 9)
        (= desty1 6)
  )
  (and  (= destx1 9)
        (= desty1 6)
  )
  (and  (= destx1 9)
        (= desty1 6)
  )
  (and  (= destx1 9)
        (= desty1 7)
  )
  (and  (= destx1 9)
        (= desty1 7)
  )
  (and  (= destx1 9)
        (= desty1 7)
  )
  (and  (= destx1 9)
        (= desty1 8)
  )
  (and  (= destx1 9)
        (= desty1 8)
  )
  (and  (= destx1 9)
        (= desty1 8)
  )
  (and  (= destx1 10)
        (= desty1 2)
  )
  (and  (= destx1 10)
        (= desty1 2)
  )
  (and  (= destx1 10)
        (= desty1 2)
  )
  (and  (= destx1 10)
        (= desty1 4)
  )
  (and  (= destx1 10)
        (= desty1 4)
  )
  (and  (= destx1 10)
        (= desty1 4)
  )
  (and  (= destx1 11)
        (= desty1 3)
  )
  (and  (= destx1 11)
        (= desty1 3)
  )
 ))
(assert (and (>= destx1 7) (<= destx1 7)))
(assert (and (>= desty1 7) (<= desty1 7)))
(assert (or 
  (and  (= destx2 0)
        (= desty2 8)
  )
  (and  (= destx2 0)
        (= desty2 8)
  )
  (and  (= destx2 1)
        (= desty2 3)
  )
  (and  (= destx2 1)
        (= desty2 3)
  )
  (and  (= destx2 1)
        (= desty2 3)
  )
  (and  (= destx2 1)
        (= desty2 7)
  )
  (and  (= destx2 1)
        (= desty2 7)
  )
  (and  (= destx2 1)
        (= desty2 7)
  )
  (and  (= destx2 1)
        (= desty2 9)
  )
  (and  (= destx2 1)
        (= desty2 9)
  )
  (and  (= destx2 1)
        (= desty2 9)
  )
  (and  (= destx2 2)
        (= desty2 2)
  )
  (and  (= destx2 2)
        (= desty2 2)
  )
  (and  (= destx2 2)
        (= desty2 2)
  )
  (and  (= destx2 2)
        (= desty2 4)
  )
  (and  (= destx2 2)
        (= desty2 4)
  )
  (and  (= destx2 2)
        (= desty2 4)
  )
  (and  (= destx2 2)
        (= desty2 5)
  )
  (and  (= destx2 2)
        (= desty2 5)
  )
  (and  (= destx2 2)
        (= desty2 5)
  )
  (and  (= destx2 2)
        (= desty2 6)
  )
  (and  (= destx2 2)
        (= desty2 6)
  )
  (and  (= destx2 2)
        (= desty2 6)
  )
  (and  (= destx2 2)
        (= desty2 7)
  )
  (and  (= destx2 2)
        (= desty2 7)
  )
  (and  (= destx2 2)
        (= desty2 9)
  )
  (and  (= destx2 2)
        (= desty2 9)
  )
  (and  (= destx2 2)
        (= desty2 9)
  )
  (and  (= destx2 3)
        (= desty2 2)
  )
  (and  (= destx2 3)
        (= desty2 2)
  )
  (and  (= destx2 3)
        (= desty2 2)
  )
  (and  (= destx2 3)
        (= desty2 4)
  )
  (and  (= destx2 3)
        (= desty2 4)
  )
  (and  (= destx2 3)
        (= desty2 9)
  )
  (and  (= destx2 3)
        (= desty2 9)
  )
  (and  (= destx2 3)
        (= desty2 9)
  )
  (and  (= destx2 4)
        (= desty2 2)
  )
  (and  (= destx2 4)
        (= desty2 2)
  )
  (and  (= destx2 4)
        (= desty2 2)
  )
  (and  (= destx2 4)
        (= desty2 4)
  )
  (and  (= destx2 4)
        (= desty2 4)
  )
  (and  (= destx2 4)
        (= desty2 5)
  )
  (and  (= destx2 4)
        (= desty2 5)
  )
  (and  (= destx2 4)
        (= desty2 6)
  )
  (and  (= destx2 4)
        (= desty2 6)
  )
  (and  (= destx2 4)
        (= desty2 7)
  )
  (and  (= destx2 4)
        (= desty2 7)
  )
  (and  (= destx2 4)
        (= desty2 8)
  )
  (and  (= destx2 4)
        (= desty2 8)
  )
  (and  (= destx2 5)
        (= desty2 2)
  )
  (and  (= destx2 5)
        (= desty2 2)
  )
  (and  (= destx2 5)
        (= desty2 2)
  )
  (and  (= destx2 5)
        (= desty2 9)
  )
  (and  (= destx2 5)
        (= desty2 9)
  )
  (and  (= destx2 5)
        (= desty2 9)
  )
  (and  (= destx2 6)
        (= desty2 3)
  )
  (and  (= destx2 6)
        (= desty2 3)
  )
  (and  (= destx2 6)
        (= desty2 4)
  )
  (and  (= destx2 6)
        (= desty2 4)
  )
  (and  (= destx2 6)
        (= desty2 5)
  )
  (and  (= destx2 6)
        (= desty2 5)
  )
  (and  (= destx2 6)
        (= desty2 6)
  )
  (and  (= destx2 6)
        (= desty2 6)
  )
  (and  (= destx2 6)
        (= desty2 6)
  )
  (and  (= destx2 6)
        (= desty2 7)
  )
  (and  (= destx2 6)
        (= desty2 7)
  )
  (and  (= destx2 6)
        (= desty2 9)
  )
  (and  (= destx2 6)
        (= desty2 9)
  )
  (and  (= destx2 6)
        (= desty2 9)
  )
  (and  (= destx2 7)
        (= desty2 2)
  )
  (and  (= destx2 7)
        (= desty2 2)
  )
  (and  (= destx2 7)
        (= desty2 2)
  )
  (and  (= destx2 7)
        (= desty2 6)
  )
  (and  (= destx2 7)
        (= desty2 6)
  )
  (and  (= destx2 7)
        (= desty2 7)
  )
  (and  (= destx2 7)
        (= desty2 7)
  )
  (and  (= destx2 7)
        (= desty2 9)
  )
  (and  (= destx2 7)
        (= desty2 9)
  )
  (and  (= destx2 7)
        (= desty2 9)
  )
  (and  (= destx2 8)
        (= desty2 2)
  )
  (and  (= destx2 8)
        (= desty2 2)
  )
  (and  (= destx2 8)
        (= desty2 2)
  )
  (and  (= destx2 8)
        (= desty2 4)
  )
  (and  (= destx2 8)
        (= desty2 9)
  )
  (and  (= destx2 8)
        (= desty2 9)
  )
  (and  (= destx2 8)
        (= desty2 9)
  )
  (and  (= destx2 9)
        (= desty2 2)
  )
  (and  (= destx2 9)
        (= desty2 2)
  )
  (and  (= destx2 9)
        (= desty2 2)
  )
  (and  (= destx2 9)
        (= desty2 4)
  )
  (and  (= destx2 9)
        (= desty2 4)
  )
  (and  (= destx2 9)
        (= desty2 4)
  )
  (and  (= destx2 9)
        (= desty2 5)
  )
  (and  (= destx2 9)
        (= desty2 5)
  )
  (and  (= destx2 9)
        (= desty2 5)
  )
  (and  (= destx2 9)
        (= desty2 6)
  )
  (and  (= destx2 9)
        (= desty2 6)
  )
  (and  (= destx2 9)
        (= desty2 6)
  )
  (and  (= destx2 9)
        (= desty2 7)
  )
  (and  (= destx2 9)
        (= desty2 7)
  )
  (and  (= destx2 9)
        (= desty2 7)
  )
  (and  (= destx2 9)
        (= desty2 8)
  )
  (and  (= destx2 9)
        (= desty2 8)
  )
  (and  (= destx2 9)
        (= desty2 8)
  )
  (and  (= destx2 10)
        (= desty2 2)
  )
  (and  (= destx2 10)
        (= desty2 2)
  )
  (and  (= destx2 10)
        (= desty2 2)
  )
  (and  (= destx2 10)
        (= desty2 4)
  )
  (and  (= destx2 10)
        (= desty2 4)
  )
  (and  (= destx2 10)
        (= desty2 4)
  )
  (and  (= destx2 11)
        (= desty2 3)
  )
  (and  (= destx2 11)
        (= desty2 3)
  )
 ))
(assert (and (>= destx2 2) (<= destx2 2)))
(assert (and (>= desty2 7) (<= desty2 7)))
(assert (or 
  (and  (= destx3 0)
        (= desty3 8)
  )
  (and  (= destx3 0)
        (= desty3 8)
  )
  (and  (= destx3 1)
        (= desty3 3)
  )
  (and  (= destx3 1)
        (= desty3 3)
  )
  (and  (= destx3 1)
        (= desty3 3)
  )
  (and  (= destx3 1)
        (= desty3 7)
  )
  (and  (= destx3 1)
        (= desty3 7)
  )
  (and  (= destx3 1)
        (= desty3 7)
  )
  (and  (= destx3 1)
        (= desty3 9)
  )
  (and  (= destx3 1)
        (= desty3 9)
  )
  (and  (= destx3 1)
        (= desty3 9)
  )
  (and  (= destx3 2)
        (= desty3 2)
  )
  (and  (= destx3 2)
        (= desty3 2)
  )
  (and  (= destx3 2)
        (= desty3 2)
  )
  (and  (= destx3 2)
        (= desty3 4)
  )
  (and  (= destx3 2)
        (= desty3 4)
  )
  (and  (= destx3 2)
        (= desty3 4)
  )
  (and  (= destx3 2)
        (= desty3 5)
  )
  (and  (= destx3 2)
        (= desty3 5)
  )
  (and  (= destx3 2)
        (= desty3 5)
  )
  (and  (= destx3 2)
        (= desty3 6)
  )
  (and  (= destx3 2)
        (= desty3 6)
  )
  (and  (= destx3 2)
        (= desty3 6)
  )
  (and  (= destx3 2)
        (= desty3 7)
  )
  (and  (= destx3 2)
        (= desty3 7)
  )
  (and  (= destx3 2)
        (= desty3 9)
  )
  (and  (= destx3 2)
        (= desty3 9)
  )
  (and  (= destx3 2)
        (= desty3 9)
  )
  (and  (= destx3 3)
        (= desty3 2)
  )
  (and  (= destx3 3)
        (= desty3 2)
  )
  (and  (= destx3 3)
        (= desty3 2)
  )
  (and  (= destx3 3)
        (= desty3 4)
  )
  (and  (= destx3 3)
        (= desty3 4)
  )
  (and  (= destx3 3)
        (= desty3 9)
  )
  (and  (= destx3 3)
        (= desty3 9)
  )
  (and  (= destx3 3)
        (= desty3 9)
  )
  (and  (= destx3 4)
        (= desty3 2)
  )
  (and  (= destx3 4)
        (= desty3 2)
  )
  (and  (= destx3 4)
        (= desty3 2)
  )
  (and  (= destx3 4)
        (= desty3 4)
  )
  (and  (= destx3 4)
        (= desty3 4)
  )
  (and  (= destx3 4)
        (= desty3 5)
  )
  (and  (= destx3 4)
        (= desty3 5)
  )
  (and  (= destx3 4)
        (= desty3 6)
  )
  (and  (= destx3 4)
        (= desty3 6)
  )
  (and  (= destx3 4)
        (= desty3 7)
  )
  (and  (= destx3 4)
        (= desty3 7)
  )
  (and  (= destx3 4)
        (= desty3 8)
  )
  (and  (= destx3 4)
        (= desty3 8)
  )
  (and  (= destx3 5)
        (= desty3 2)
  )
  (and  (= destx3 5)
        (= desty3 2)
  )
  (and  (= destx3 5)
        (= desty3 2)
  )
  (and  (= destx3 5)
        (= desty3 9)
  )
  (and  (= destx3 5)
        (= desty3 9)
  )
  (and  (= destx3 5)
        (= desty3 9)
  )
  (and  (= destx3 6)
        (= desty3 3)
  )
  (and  (= destx3 6)
        (= desty3 3)
  )
  (and  (= destx3 6)
        (= desty3 4)
  )
  (and  (= destx3 6)
        (= desty3 4)
  )
  (and  (= destx3 6)
        (= desty3 5)
  )
  (and  (= destx3 6)
        (= desty3 5)
  )
  (and  (= destx3 6)
        (= desty3 6)
  )
  (and  (= destx3 6)
        (= desty3 6)
  )
  (and  (= destx3 6)
        (= desty3 6)
  )
  (and  (= destx3 6)
        (= desty3 7)
  )
  (and  (= destx3 6)
        (= desty3 7)
  )
  (and  (= destx3 6)
        (= desty3 9)
  )
  (and  (= destx3 6)
        (= desty3 9)
  )
  (and  (= destx3 6)
        (= desty3 9)
  )
  (and  (= destx3 7)
        (= desty3 2)
  )
  (and  (= destx3 7)
        (= desty3 2)
  )
  (and  (= destx3 7)
        (= desty3 2)
  )
  (and  (= destx3 7)
        (= desty3 6)
  )
  (and  (= destx3 7)
        (= desty3 6)
  )
  (and  (= destx3 7)
        (= desty3 7)
  )
  (and  (= destx3 7)
        (= desty3 7)
  )
  (and  (= destx3 7)
        (= desty3 9)
  )
  (and  (= destx3 7)
        (= desty3 9)
  )
  (and  (= destx3 7)
        (= desty3 9)
  )
  (and  (= destx3 8)
        (= desty3 2)
  )
  (and  (= destx3 8)
        (= desty3 2)
  )
  (and  (= destx3 8)
        (= desty3 2)
  )
  (and  (= destx3 8)
        (= desty3 4)
  )
  (and  (= destx3 8)
        (= desty3 9)
  )
  (and  (= destx3 8)
        (= desty3 9)
  )
  (and  (= destx3 8)
        (= desty3 9)
  )
  (and  (= destx3 9)
        (= desty3 2)
  )
  (and  (= destx3 9)
        (= desty3 2)
  )
  (and  (= destx3 9)
        (= desty3 2)
  )
  (and  (= destx3 9)
        (= desty3 4)
  )
  (and  (= destx3 9)
        (= desty3 4)
  )
  (and  (= destx3 9)
        (= desty3 4)
  )
  (and  (= destx3 9)
        (= desty3 5)
  )
  (and  (= destx3 9)
        (= desty3 5)
  )
  (and  (= destx3 9)
        (= desty3 5)
  )
  (and  (= destx3 9)
        (= desty3 6)
  )
  (and  (= destx3 9)
        (= desty3 6)
  )
  (and  (= destx3 9)
        (= desty3 6)
  )
  (and  (= destx3 9)
        (= desty3 7)
  )
  (and  (= destx3 9)
        (= desty3 7)
  )
  (and  (= destx3 9)
        (= desty3 7)
  )
  (and  (= destx3 9)
        (= desty3 8)
  )
  (and  (= destx3 9)
        (= desty3 8)
  )
  (and  (= destx3 9)
        (= desty3 8)
  )
  (and  (= destx3 10)
        (= desty3 2)
  )
  (and  (= destx3 10)
        (= desty3 2)
  )
  (and  (= destx3 10)
        (= desty3 2)
  )
  (and  (= destx3 10)
        (= desty3 4)
  )
  (and  (= destx3 10)
        (= desty3 4)
  )
  (and  (= destx3 10)
        (= desty3 4)
  )
  (and  (= destx3 11)
        (= desty3 3)
  )
  (and  (= destx3 11)
        (= desty3 3)
  )
 ))
(assert (and (>= destx3 3) (<= destx3 3)))
(assert (and (>= desty3 2) (<= desty3 2)))
(assert (or 
  (and  (= destx4 0)
        (= desty4 8)
  )
  (and  (= destx4 0)
        (= desty4 8)
  )
  (and  (= destx4 1)
        (= desty4 3)
  )
  (and  (= destx4 1)
        (= desty4 3)
  )
  (and  (= destx4 1)
        (= desty4 3)
  )
  (and  (= destx4 1)
        (= desty4 7)
  )
  (and  (= destx4 1)
        (= desty4 7)
  )
  (and  (= destx4 1)
        (= desty4 7)
  )
  (and  (= destx4 1)
        (= desty4 9)
  )
  (and  (= destx4 1)
        (= desty4 9)
  )
  (and  (= destx4 1)
        (= desty4 9)
  )
  (and  (= destx4 2)
        (= desty4 2)
  )
  (and  (= destx4 2)
        (= desty4 2)
  )
  (and  (= destx4 2)
        (= desty4 2)
  )
  (and  (= destx4 2)
        (= desty4 4)
  )
  (and  (= destx4 2)
        (= desty4 4)
  )
  (and  (= destx4 2)
        (= desty4 4)
  )
  (and  (= destx4 2)
        (= desty4 5)
  )
  (and  (= destx4 2)
        (= desty4 5)
  )
  (and  (= destx4 2)
        (= desty4 5)
  )
  (and  (= destx4 2)
        (= desty4 6)
  )
  (and  (= destx4 2)
        (= desty4 6)
  )
  (and  (= destx4 2)
        (= desty4 6)
  )
  (and  (= destx4 2)
        (= desty4 7)
  )
  (and  (= destx4 2)
        (= desty4 7)
  )
  (and  (= destx4 2)
        (= desty4 9)
  )
  (and  (= destx4 2)
        (= desty4 9)
  )
  (and  (= destx4 2)
        (= desty4 9)
  )
  (and  (= destx4 3)
        (= desty4 2)
  )
  (and  (= destx4 3)
        (= desty4 2)
  )
  (and  (= destx4 3)
        (= desty4 2)
  )
  (and  (= destx4 3)
        (= desty4 4)
  )
  (and  (= destx4 3)
        (= desty4 4)
  )
  (and  (= destx4 3)
        (= desty4 9)
  )
  (and  (= destx4 3)
        (= desty4 9)
  )
  (and  (= destx4 3)
        (= desty4 9)
  )
  (and  (= destx4 4)
        (= desty4 2)
  )
  (and  (= destx4 4)
        (= desty4 2)
  )
  (and  (= destx4 4)
        (= desty4 2)
  )
  (and  (= destx4 4)
        (= desty4 4)
  )
  (and  (= destx4 4)
        (= desty4 4)
  )
  (and  (= destx4 4)
        (= desty4 5)
  )
  (and  (= destx4 4)
        (= desty4 5)
  )
  (and  (= destx4 4)
        (= desty4 6)
  )
  (and  (= destx4 4)
        (= desty4 6)
  )
  (and  (= destx4 4)
        (= desty4 7)
  )
  (and  (= destx4 4)
        (= desty4 7)
  )
  (and  (= destx4 4)
        (= desty4 8)
  )
  (and  (= destx4 4)
        (= desty4 8)
  )
  (and  (= destx4 5)
        (= desty4 2)
  )
  (and  (= destx4 5)
        (= desty4 2)
  )
  (and  (= destx4 5)
        (= desty4 2)
  )
  (and  (= destx4 5)
        (= desty4 9)
  )
  (and  (= destx4 5)
        (= desty4 9)
  )
  (and  (= destx4 5)
        (= desty4 9)
  )
  (and  (= destx4 6)
        (= desty4 3)
  )
  (and  (= destx4 6)
        (= desty4 3)
  )
  (and  (= destx4 6)
        (= desty4 4)
  )
  (and  (= destx4 6)
        (= desty4 4)
  )
  (and  (= destx4 6)
        (= desty4 5)
  )
  (and  (= destx4 6)
        (= desty4 5)
  )
  (and  (= destx4 6)
        (= desty4 6)
  )
  (and  (= destx4 6)
        (= desty4 6)
  )
  (and  (= destx4 6)
        (= desty4 6)
  )
  (and  (= destx4 6)
        (= desty4 7)
  )
  (and  (= destx4 6)
        (= desty4 7)
  )
  (and  (= destx4 6)
        (= desty4 9)
  )
  (and  (= destx4 6)
        (= desty4 9)
  )
  (and  (= destx4 6)
        (= desty4 9)
  )
  (and  (= destx4 7)
        (= desty4 2)
  )
  (and  (= destx4 7)
        (= desty4 2)
  )
  (and  (= destx4 7)
        (= desty4 2)
  )
  (and  (= destx4 7)
        (= desty4 6)
  )
  (and  (= destx4 7)
        (= desty4 6)
  )
  (and  (= destx4 7)
        (= desty4 7)
  )
  (and  (= destx4 7)
        (= desty4 7)
  )
  (and  (= destx4 7)
        (= desty4 9)
  )
  (and  (= destx4 7)
        (= desty4 9)
  )
  (and  (= destx4 7)
        (= desty4 9)
  )
  (and  (= destx4 8)
        (= desty4 2)
  )
  (and  (= destx4 8)
        (= desty4 2)
  )
  (and  (= destx4 8)
        (= desty4 2)
  )
  (and  (= destx4 8)
        (= desty4 4)
  )
  (and  (= destx4 8)
        (= desty4 9)
  )
  (and  (= destx4 8)
        (= desty4 9)
  )
  (and  (= destx4 8)
        (= desty4 9)
  )
  (and  (= destx4 9)
        (= desty4 2)
  )
  (and  (= destx4 9)
        (= desty4 2)
  )
  (and  (= destx4 9)
        (= desty4 2)
  )
  (and  (= destx4 9)
        (= desty4 4)
  )
  (and  (= destx4 9)
        (= desty4 4)
  )
  (and  (= destx4 9)
        (= desty4 4)
  )
  (and  (= destx4 9)
        (= desty4 5)
  )
  (and  (= destx4 9)
        (= desty4 5)
  )
  (and  (= destx4 9)
        (= desty4 5)
  )
  (and  (= destx4 9)
        (= desty4 6)
  )
  (and  (= destx4 9)
        (= desty4 6)
  )
  (and  (= destx4 9)
        (= desty4 6)
  )
  (and  (= destx4 9)
        (= desty4 7)
  )
  (and  (= destx4 9)
        (= desty4 7)
  )
  (and  (= destx4 9)
        (= desty4 7)
  )
  (and  (= destx4 9)
        (= desty4 8)
  )
  (and  (= destx4 9)
        (= desty4 8)
  )
  (and  (= destx4 9)
        (= desty4 8)
  )
  (and  (= destx4 10)
        (= desty4 2)
  )
  (and  (= destx4 10)
        (= desty4 2)
  )
  (and  (= destx4 10)
        (= desty4 2)
  )
  (and  (= destx4 10)
        (= desty4 4)
  )
  (and  (= destx4 10)
        (= desty4 4)
  )
  (and  (= destx4 10)
        (= desty4 4)
  )
  (and  (= destx4 11)
        (= desty4 3)
  )
  (and  (= destx4 11)
        (= desty4 3)
  )
 ))
(assert (and (>= destx4 1) (<= destx4 1)))
(assert (and (>= desty4 3) (<= desty4 3)))
(assert (or 
  (and  (= destx5 0)
        (= desty5 8)
  )
  (and  (= destx5 0)
        (= desty5 8)
  )
  (and  (= destx5 1)
        (= desty5 3)
  )
  (and  (= destx5 1)
        (= desty5 3)
  )
  (and  (= destx5 1)
        (= desty5 3)
  )
  (and  (= destx5 1)
        (= desty5 7)
  )
  (and  (= destx5 1)
        (= desty5 7)
  )
  (and  (= destx5 1)
        (= desty5 7)
  )
  (and  (= destx5 1)
        (= desty5 9)
  )
  (and  (= destx5 1)
        (= desty5 9)
  )
  (and  (= destx5 1)
        (= desty5 9)
  )
  (and  (= destx5 2)
        (= desty5 2)
  )
  (and  (= destx5 2)
        (= desty5 2)
  )
  (and  (= destx5 2)
        (= desty5 2)
  )
  (and  (= destx5 2)
        (= desty5 4)
  )
  (and  (= destx5 2)
        (= desty5 4)
  )
  (and  (= destx5 2)
        (= desty5 4)
  )
  (and  (= destx5 2)
        (= desty5 5)
  )
  (and  (= destx5 2)
        (= desty5 5)
  )
  (and  (= destx5 2)
        (= desty5 5)
  )
  (and  (= destx5 2)
        (= desty5 6)
  )
  (and  (= destx5 2)
        (= desty5 6)
  )
  (and  (= destx5 2)
        (= desty5 6)
  )
  (and  (= destx5 2)
        (= desty5 7)
  )
  (and  (= destx5 2)
        (= desty5 7)
  )
  (and  (= destx5 2)
        (= desty5 9)
  )
  (and  (= destx5 2)
        (= desty5 9)
  )
  (and  (= destx5 2)
        (= desty5 9)
  )
  (and  (= destx5 3)
        (= desty5 2)
  )
  (and  (= destx5 3)
        (= desty5 2)
  )
  (and  (= destx5 3)
        (= desty5 2)
  )
  (and  (= destx5 3)
        (= desty5 4)
  )
  (and  (= destx5 3)
        (= desty5 4)
  )
  (and  (= destx5 3)
        (= desty5 9)
  )
  (and  (= destx5 3)
        (= desty5 9)
  )
  (and  (= destx5 3)
        (= desty5 9)
  )
  (and  (= destx5 4)
        (= desty5 2)
  )
  (and  (= destx5 4)
        (= desty5 2)
  )
  (and  (= destx5 4)
        (= desty5 2)
  )
  (and  (= destx5 4)
        (= desty5 4)
  )
  (and  (= destx5 4)
        (= desty5 4)
  )
  (and  (= destx5 4)
        (= desty5 5)
  )
  (and  (= destx5 4)
        (= desty5 5)
  )
  (and  (= destx5 4)
        (= desty5 6)
  )
  (and  (= destx5 4)
        (= desty5 6)
  )
  (and  (= destx5 4)
        (= desty5 7)
  )
  (and  (= destx5 4)
        (= desty5 7)
  )
  (and  (= destx5 4)
        (= desty5 8)
  )
  (and  (= destx5 4)
        (= desty5 8)
  )
  (and  (= destx5 5)
        (= desty5 2)
  )
  (and  (= destx5 5)
        (= desty5 2)
  )
  (and  (= destx5 5)
        (= desty5 2)
  )
  (and  (= destx5 5)
        (= desty5 9)
  )
  (and  (= destx5 5)
        (= desty5 9)
  )
  (and  (= destx5 5)
        (= desty5 9)
  )
  (and  (= destx5 6)
        (= desty5 3)
  )
  (and  (= destx5 6)
        (= desty5 3)
  )
  (and  (= destx5 6)
        (= desty5 4)
  )
  (and  (= destx5 6)
        (= desty5 4)
  )
  (and  (= destx5 6)
        (= desty5 5)
  )
  (and  (= destx5 6)
        (= desty5 5)
  )
  (and  (= destx5 6)
        (= desty5 6)
  )
  (and  (= destx5 6)
        (= desty5 6)
  )
  (and  (= destx5 6)
        (= desty5 6)
  )
  (and  (= destx5 6)
        (= desty5 7)
  )
  (and  (= destx5 6)
        (= desty5 7)
  )
  (and  (= destx5 6)
        (= desty5 9)
  )
  (and  (= destx5 6)
        (= desty5 9)
  )
  (and  (= destx5 6)
        (= desty5 9)
  )
  (and  (= destx5 7)
        (= desty5 2)
  )
  (and  (= destx5 7)
        (= desty5 2)
  )
  (and  (= destx5 7)
        (= desty5 2)
  )
  (and  (= destx5 7)
        (= desty5 6)
  )
  (and  (= destx5 7)
        (= desty5 6)
  )
  (and  (= destx5 7)
        (= desty5 7)
  )
  (and  (= destx5 7)
        (= desty5 7)
  )
  (and  (= destx5 7)
        (= desty5 9)
  )
  (and  (= destx5 7)
        (= desty5 9)
